200
9187884
986
874
455
433
448
443
366
317
459
392
435
219
729
339
154
767
640
387
615
348
524
202
255
634
914
829
180
930
747
992
763
199
575
49
447
240
441
671
329
96
208
551
714
528
996
931
991
965
138
213
656
579
619
111
587
34
696
581
577
389
513
395
770
602
847
405
471
793
119
736
165
294
689
489
35
846
813
799
425
751
999
19
746
148
394
723
506
289
903
4
402
889
683
344
715
78
508
922
330
463
522
816
845
954
6
135
804
233
808
782
88
261
89
502
375
107
293
978
923
860
909
168
778
496
369
622
573
33
39
267
790
873
189
537
22
473
843
895
507
276
812
191
95
765
918
564
246
128
668
700
457
216
429
719
160
451
69
113
792
301
477
638
131
607
15
960
627
520
981
382
771
898
407
157
949
393
235
424
423
404
595
925
115
472
428
798
681
651
280
610
544
256
679
320
755
822
378
787
125
153
